
 102   30
  10   10   10   10   10   10   10   10   10   10   10   10   10   10   10   10   10   10   10   10   10   10   10   10   10   10   10   10   10   10

   0   0   0   0   0   0   0   0   0   0   0   0   0   0   0   0   0   0   0   0   0   0   0   0   0   0   0   0   0   0   0  25 2 3 4 5 6 7 8 9 10 11 12 13 14 16 17 20 21 22 26 27 30 31 32 35 40 
   4   0   0   0   0   0   0   0   0   0   0   2   0   0   0   0   0   0   0   0   0   1   0   0   0   0   0   0   0   0   0  11 68 62 59 50 48 44 36 33 23 19 15 
   9   0   0   0   0   0   0   0   0   0   0   0   0   0   0   0   0   0   2   0   0   0   0   0   0   0   0   0   0   0   0  19 101 68 67 66 64 58 56 54 52 50 49 48 43 42 41 39 38 37 34 
   9   0   0   0   1   0   0   0   0   1   0   0   0   0   1   0   0   0   0   0   0   0   0   0   0   0   0   2   0   0   2  10 67 60 57 51 50 48 42 28 25 23 
   7   0   0   1   0   0   0   0   1   0   1   0   0   0   0   0   0   0   0   0   0   0   0   0   0   0   0   0   2   2   0  14 69 68 67 66 60 58 56 47 43 42 38 37 34 23 
  10   0   0   0   0   0   1   1   0   0   0   0   0   0   0   0   1   0   0   3   0   3   0   0   0   0   0   0   0   0   0  14 101 100 67 66 65 58 57 53 45 43 41 37 36 24 
   9   0   0   7   0   0   0   0   0   5   0   7   0   0   0   0   0   1   0   8   0   0   0   3   0   0   0   0   3   0   0  11 67 64 59 58 52 51 49 45 44 39 18 
   3   0   1   0   0   0   9  10   0   9   0   0   0   0   6   0   0   0   0   6   0   0   0   0   0   0   0   0  10   0   0  15 97 74 73 69 68 67 66 59 58 57 53 52 49 36 29 
   7   0   7   4   0   0   0   4   0   7   0   0   0   4   0   0   0   0   0  10   1   0   0   0   4   0   0   0   4   0   0  17 101 100 99 97 96 72 65 64 62 59 53 51 46 45 43 42 36 
   9   0   0   0   0   0   0   0   5   0   8   0   0   0   0   0   0   0   0   0   0   0   0   0   0   0   0   6   0   8   0  17 101 100 96 95 86 72 67 66 65 64 63 62 60 54 53 46 36 
   8   0   0   0   0   0   0   0   0   0   0   9   1   0   0   0   0   0   0   0   0   0   0   0   0   0   1   0   0   0   0  18 101 100 98 95 94 76 68 66 64 63 61 60 59 57 55 54 49 39 
   3   0   0   0   0   0   7   0   0   0   7   0   0   0   0   0   0   0   0   0   0   0   0   0   0   0   0   0   0   0   0  17 97 95 94 88 75 74 73 72 68 67 66 65 64 56 55 50 49 
   3   0   0   0   0   0   0   0   0   0   0   0   0   0  10   0   0   0   0   0   0   0   0   5   3   0   0   0   0   0   0  17 100 96 95 76 73 71 67 65 64 61 58 57 54 53 49 48 47 
   6   0   0   6   0   0   0   0   0   0   0   5   0   0   0   1   0   0   6   0   6   0   0   0   0   0   0   7   0   0   0  15 98 97 96 95 93 74 73 68 64 57 56 52 49 48 42 
  10   1   0   0   0   2   0   0   0   0   0   0   0   0   3   0   0   0   0   0   0   5   0   0   0   0   8   0   0   7   7  10 101 100 90 76 71 64 55 51 41 37 
  10   0   9   0   0   0   3   0   0   4   0   0   0   0   0   0   0   6   0   0   0   0   0   0   0   0   0   0   0   0   0  15 97 96 95 93 92 72 67 66 65 64 57 54 53 46 45 
   9   0   0   0   0   0   0   0   0   0   0   0   0   6   0   0   0   0   0   0   0   0   0   0   0   0   0   5   0   0   0  15 98 97 95 91 86 76 74 73 71 69 65 62 53 50 42 
   2   0   0   0   0   0   0   8   0   0   8   0   0   0   0   0   0   0   0   0   7   0   0   0   0   0   0   0   0   0   0  12 100 99 97 96 95 89 79 75 74 65 43 36 
   6   0   0   0   0   0   0   0   0   0   0   0   0   7   8   0   0   0   0   0   0   0   0   3   0   0   0   0   0   0   0  18 101 100 98 96 95 93 91 90 89 86 74 72 69 65 64 61 53 42 
  10   0   0   0   0   0   0   0   0   0   0   0   0   0   5   0   3   0   0   0   0   0   0   0   0   0   9   0   0   0   0  15 99 97 96 95 94 88 80 74 73 67 65 64 56 51 48 
   7   0   0   0   0   0   9   0   0   0   0   0   0   0   0   0   0   5   0   0   5   8   1   0   0   0   0   0   0   0   8  12 100 96 95 76 73 71 68 66 64 61 57 41 
   4   0   0   0   0   0   0   0   0   0   0   0   0   0   0   0   0   0   0   0   0   0   7   0   0   0   6   0   0   0   4  13 99 96 95 93 92 91 86 75 72 64 62 61 46 
   3   0   0   0   0   0   8   0   5   0   0   0   0   0   0   0   0   0   0   9   0   0   0   0   0   0   0   0   0   0   0  10 96 95 93 86 76 75 55 54 53 39 
   1   0   0   0   6   0   0   0   0   0   0   0   0   0   0   0   0   0   0   0   0   0   0   0   0   0   0   0   0   0   0  13 98 97 96 95 94 88 83 74 71 64 62 55 48 
   4   0   0   0  10   0   0   0   0   0   0   0   0   0   0   0   0   0   0   5   0   0   0   0   0   0   0   0   0   0   3   8 99 90 82 76 75 58 56 37 
   6   0   0   0   0   0   0   0   0   8   0   0   0   0   0   0   0   0   0   0   0   0   0   0   0   0   0   0   0   0   0  19 101 100 99 98 97 96 95 92 91 87 86 85 84 80 76 73 61 58 54 
   8   0   8   0   0   0   0   0   0   0   0   0   0   0   6   0   0   0   7   0   0   0   0   0   0   1   0   0   0   0   0  14 101 100 97 93 92 75 73 72 71 65 64 61 57 49 
   9   4   0   0   0   0   0   0   0   0   0   0   0   5   0   0   0   0   0   0   0   0   0   0   0   0   0   0   0   0   0  12 100 98 97 96 95 94 93 90 72 70 64 38 
   8   0   0   0   0   0   0   0   0   0   5   0   0   8   0   6   0   0   0   0   0   0   0   0   0   0   0   0   0   0   0  13 101 99 98 96 95 93 91 80 71 65 64 61 42 
   8   0   0   0   0   0   0   0   0   0   0   0   3   0   5   0   0   9  10   0   0   0   0   0   0   0   5  10   0   0   0  18 98 95 93 91 89 88 86 85 82 80 75 74 72 71 70 67 64 61 
   2   8   0   0   0   0   0   0   0   0   0   0   0   0   6   0   0   0  10   0   0   0   0   0   0   0   0   0   2   0   0  15 98 96 95 94 93 88 87 80 76 74 73 71 70 68 48 
   7   0   0   0   0   0   9   0   0   0   0   0   6   0   0   5   6   6   0   2   0   0   0   0   0   0   0   0   0   0   0  10 97 94 86 81 74 73 72 55 54 53 
   8   0   0   0   6   0   0   0   0   4   0   4   0   0   0   7   0   0   5   0   0   0   0   0   0   9   0   0   0   0   4  16 97 93 92 91 87 86 85 84 82 80 78 76 75 70 66 61 
   6  10   0   0   0   0   0   0   0   5   4   0   0   0   0   0   0   0   0   0   0   6   0   0   0   0   0   0   0   0   0  10 98 97 92 88 83 82 81 71 62 53 
   2   0   0   0   0   0   0   6   0   0   0   0   0   0   0   0   0   7   0   0   0   0   0   0   0   0   0   0   0   0   0   9 98 95 93 88 86 72 65 61 55 
  10   0   5   0   0   0   0   0   0   0   4   0   0   0   0   0   0   0   0   0   0   0   0   0   0   7   0   4   0   0   0  12 98 93 88 87 85 84 83 82 81 76 71 55 
   1   0   7   6   0   0   0   0   7   0   0   0   9   0   0   0   0   0   0   6   0   0   0   0   0   0   0   0   0   0   0  12 96 95 94 93 88 87 86 80 79 74 72 61 
   2   0   0   0   0   0   0   0   0   0   0   0   0   0   0   0   0   0   0   0   0   0   0   5   0   0   0   0  10   6   0  14 92 91 89 88 87 86 84 83 82 81 80 79 74 71 
   4   0   0   0   0   0   0   0   0   0   0   0   0   0   0   0   5   0   0   0   3   0   7  10   0   0   0   5   0   0   0  12 99 92 89 83 82 80 79 78 73 72 71 65 
   5   0   0   0   0   0   8   0   0  10   0   0   0   0   0   2   0   0   0   0   7   0   0   0   0   0   0   9   0   0   0  11 97 93 87 86 83 82 79 77 72 68 67 
   7   0   6   0   9   0   0   0   0   0   0   0   0   0   4   0   0   7   0   0   0   0   0   0   0   2   8   0   0   0   0  12 99 97 93 89 88 86 85 81 80 75 72 70 
   3   0   0   0   0   0   0   9   0   0   0   0   0   6  10   0   7   0   4   0   0   0   0   0   0   0   0   0   0   0   0  12 94 92 88 85 84 83 82 81 79 78 75 70 
   4   0   5   0   0   5   0   0   0   0   5   0   0   0   0   6   0   0   0   0   0   0   0   6   0   0   0   0   0   0  10  11 94 87 86 85 83 82 81 80 78 76 73 
   2   0   0   0   6   0   0   0   0   0   8   0   0   0   0   0   6   0   0   3   0   0   4   0   0   0   0   0   0   0   0   7 101 94 86 81 80 79 54 
   2   0   0   5   0   0   0   0   0   0   0   0   0   0   0   0   0   0   0   0   0   0   0   0   0   0   0   0   8  10   0  11 94 91 90 89 87 86 84 81 80 79 71 
   2   0   0   0   0   0   0   0   9  10   0   0   0   0   0   0   4   0   0   0   0   0   0   0   0   0   0   0   0   0   0   9 94 88 85 84 79 74 73 71 70 
   8   0   4   0   0   0   0   0   0   0   0   0   6   0   0   0   0   0   0   0  10   0   0   0   9   0   0   0   0   0   0  10 98 94 93 89 87 86 85 82 80 79 
   8   0   0   0   0   7   0   0   0   0   0   0   0   0   0   0   0   0   0   0   0   0   6   0   0   7   0   0   0   6   0   8 86 85 82 81 79 78 77 72 
   3   5   0   0   0  10   8   0   4   0   0   0   0   0   0   0   0   0   0   0   7   0   0   0   0   0   5   0   0   0   0   8 91 87 86 82 81 79 78 70 
   8   0   0   0   0   9   5   0   0   0   0   0   6   0   0   0   0   0   0   0   0   4   0   0   2   0   0   0   0   0   0   8 99 96 93 87 84 83 82 70 
   5   0   0   0   0   0   0   0   0   0   0   0   0  10   0   0   0   0   0   8   0   3   0   0   6   0   0   0   0   0   8   6 92 91 83 82 70 66 
   7   0   8   0   0   0   0   0   0   9   0   0   0   0   0   8   0   0   0   0   0   0   0   0   0   0   0   0   0   0   0   8 100 89 85 83 82 80 79 78 
   1   0   0   0   0   0   0   0   0   0   5   6   0   0   0   0   0   0   0   0   0   7   0   9   0   0   0   0   0   0   0   7 87 85 84 80 79 78 77 
   5   0   0   7   0   0   0   0   0   0   0   0   0   0   0   0   0   0   0   0   0   0   8   0   0   0   0   0   0   0   0   6 89 88 83 82 78 77 
   3   0   0   0   0   0   0   0   0   0   0   0   0   3   0   0   0   0   0   0   0   0   0   0   0   0   0  10   0   0   0   5 92 91 80 78 70 
   8   0   0   0   0   7   0   0   0   0   0   0   0   0   0   7   0   0   0   0   6   0   0   0   0   0   0   0   0   0   0   5 91 85 78 71 70 
  10   0   0   0   0   0   0   0   0   0   0   0   0   0   0   0   0   0   0   0   0   0   6   0   0   0   4   0   0   0   0   5 86 84 82 80 77 
   5   5   0   0   0   0   0   0   0   0   0   0   0   0   0   5   4   0   6   0   0   0   0   0   0   0   0   0   0   0   0   4 83 81 79 78 
   3   0   0   0   0   0   0   0   0   0   0   0   0   0   0   0   0   0   0   0   0   0   5   0   0   0   0   0   0   0   6   4 86 82 81 79 
   7   0   0   0   0   0   0   0   0   0   0   0   0   0   8   0   0   0   0   0   0   9   0   0   0   0   0   5   0   0   0   4 99 90 80 78 
   3   0   0   0   0   0   0   0   9   0   0   9   6   0   0   0   0   0   0   0   0   0   0   0   0   0   0   0   0   0   0   3 83 81 77 
   2   0   7   0   0   0   7   0   0   3   0   0   8   0   0   0   9   0   6   0   0   0   0   4   0   0   0   0   0   5   0   3 90 89 80 
   2   0   0   0   0   0   0   0   0   0   0   0   0   0   0   0   0   0   0   0   0   0   0   0   0   0   0   0   0   0   0   3 97 92 83 
   4   7   7   0   0   0   4   0   0   0   0   0   0   0   0   5   0   0   0   0   0   0   0   0   0   0   0   0   0   6   0   2 87 81 
   5   0   5   0   0   0   0   0   0   0   0   6   0   0   0   0   0   0   0   0   0   0   0   0   0   0   0   0   0   0   0   2 85 77 
   5   0   0   0   0   0   4   0   0   0   0   0   6   0   0   0   0   0   3   0   0   0   0   7   0   0   0   0   0   0   0   2 89 79 
   5   0   0   7   0   0   0   9   0   0   0   0   0   0   0   0   0   0   6   0   0   0   0   0   0   0   0   0   0   0   0   2 90 81 
   5   0   0   0   0   0   0   0   0   0   0   0   0   0   0   0   0   0   6   0   0   0   0   0   0   9   0   9   0   0   0   2 85 78 
   9   0   0   0   0   0   0   0   0   0   8  10   0   0   0   8   0   0   0   0   0   7   0   0   5   0   0   0   0   0   0   2 79 77 
  10   0   0   0   0   3   0   0   0   0   0   0   0   0   0   0   0   5   0   0   0   0   0   0   0   0   0   0   0   0   0   1 77 
   2   0   0   0   0   7   0   0   0   0   0   0   0   0   0   0   0   0   0   0   0   0   0   0   0   0   0   0   0   0   4   1 77 
   5   0   0   0   0   0   2   6   0   0   0   0   0   0   0   7   0   0   0   0   0   0   0   0   0   0   0   0   0   0   0   1 84 
   6   0   0   0   0   0   0   0   7   3   0   0   0   0   0   0   0   0   0   0   8   0   0   0   0   0   0   0   0   0  10   1 90 
   6   0   5   0   0   0   0   7   0   0   0   0   0   0   0   0   0   0   0   0   0   0   0   0   0   6   0   0   0   0   0   1 78 
   6   0   0   0   0   7   0   0   0   0   0   0   0   0   0   0   0   0   0   0   0   0   0   0   0   0   0   0   0   0   0   1 77 
   9   0   0   0   0   0   0   0   0   0   0   1   0   5   9   0   0   0   0   0   0   0   9  10   0   0   0   0   0   0   0   1 77 
   2   0   0   0   0   0   0   6   0   0   0   0   0   0   0   0   0   0   0   0   0   0   0   0   0   0   0   0   0   7   0   1 102
   5   0   0   0   0   0   0   0   0   0   0   0   0   0   0   0   0   0   4   0   6   0   0   0   0   0   0   7   5   0   0   1 102
   7   0   0   0   0   0   0   0   0   6   0   0   8   0   0   0   0   0   9   0   0   0   0   0   0   0   0   3   0   0   0   1 102
   1   0   0   0   5   8   0   0   0   0   6   7   0   0   0   0  10   0   0   7   9   0   0   7   0   0   0   0   0   4   0   1 102
   8   0   0   0   0   0   0   0   5   0   0   0   4   0   0   0   0   0   5   0   0   0   6   0   0   6   0   0   8   0   0   1 102
   4   0   0   0   0   0   0   4   0   0   0   0   8   0   0   6   9   0   0   0   0   0   0   0   0   0   0   0   0   0   0   1 102
   7   0   0   0   0   5   0   0   0   0   0   0   0   0   0   0   0   0   0   0   0   0   0   0   0   0   0   0   0   6   0   1 102
   1   0   0   8   0   0   0   0   0   0   0   0   0   0   0   0   0   0   5   0   0   7   0   0   4   0   0   5   0   0   0   1 102
   4   0   0   0   0   0   0   0   0   0   0   0   0   0   0   0   0   0   0   0   0   0   0   0   0   0   0   0   6   7   0   1 102
   2   0   0   0   0   0   0   0   0   0   4   0   0   0   3   0   0   0   0   4   0   0   0   0   0   0   0   0   0   0   0   1 102
  10   5   0   0   0   0   0   0   0   0   9   0   0   0   0   0   0   0   9   0   0   0   0   0   0   0   0   0   0   0   0   1 102
   9   0   0   0   5   0   0   0   7   0   0   0   0   0   0   5   0   0   0   0   4   0   0   0   0   0   0   0   0   0   0   1 102
   8   5   0   0   0   0   0   0   0   0   0   0   0   0   0   0   0   0   0   0   0   0   0   0   0   7   0   0   0   0   0   1 102
   7   0   0   0   0   0   0   0   0   0   0   0   0   0   0   0   0   0   0   0   0   0   0   5   0   0   0   0   0   0   0   1 102
   4   0   6   0   0   0   0   0   0   0   0   0   0   0   0   0   0   0   0   4   0   0   0   0  10   0   0   0   0   0   0   1 102
  10   0   0   0   0   0   0   0   0   0   0   0   0   0   0   0   0   0   0   0   0   9   0   5   0   0   0   0   8   0   0   1 102
   1   0   0   0   0   3   0   0   0   0   0   0   0   0   0   0   8   0   0   7   0   0   0   0   0   0   8   0   0   0   0   1 102
   7   0   0   0   0   0   4   0   0   0   7   0   0   0   0   8   5   0   5   0   0   0   0   5   0   0   0   0   0   0   0   1 102
   7   0   0   9   0   0   0   0   0   0   0   0   0   0   0   0   0   5   0   8   0   0   0   0   0   0   0   0   7   0   0   1 102
   2   0   4   0   6   0   0   0   8   0   0   0   0   0   0   0   0   9   0   0   6   0   0   0   9   0   0   0   5   0   0   1 102
   4   0   0   0   0   0   0   0   0   0   8   0   0   0   0  10   0   0   0   0   0   9   0   0   0   0   0   3   0   0   0   1 102
   5   9   0   0   0   5   0   0   0   0   0   0   7   0   6   0   0   0   0   0   0   0   0   0   8   0   0   0   0   0   0   1 102
   1   7   0   0   0   0   0   0   5   0   0   0   0   0   0   0   9   0   0   0   0   0   7   0   0   0   6   0   0   0   0   1 102
   6   0   0   0   0   0   0   0   0   0   0   0   0   0   0   6   4   0   0   0   5   0   0   0   0   0   0   0   0   6   0   1 102
   6   0   8   0   0   0   8   2   0   6   5   0   0   0   0   0   0   0   0   0   0   0   0   0   0   0   0   0   0   4   0   1 102
   0   0   0   0   0   0   0   0   0   0   0   0   0   0   0   0   0   0   0   0   0   0   0   0   0   0   0   0   0   0   0   0 
